db/data/2457129059443949114308272701434929930.z3.out
-------------------
2500.112717342
